SPARKNaCl/why3-z3/sparknacl-core.adb_457_16_range_check4_1.smt2
;; produced by z3_gnatprove.drv ;;
(set-info :smt-lib-version 2.5)
(set-info :source |VC generated by SPARK 2014|)
(set-info :category industrial)
(set-info :status unknown)
;;; generated by SMT-LIB2 driver
;;; SMT-LIB2 driver: bit-vectors, common part
;;; SMT-LIB2: integer arithmetic
(declare-datatypes ()
  ((t__ref (t__refqtmk (t__content (_ BitVec 32))))))

(declare-sort byte 0)

(declare-sort map1 0)

(declare-datatypes ()
  ((map__ref (map__refqtmk (map__content map1)))))

;; "has_bounds"
(declare-fun has_bounds (map1
  Int
  Int) Bool)

;; "to_rep"
(declare-fun to_rep (byte) (_ BitVec 8))

;; "of_rep"
(declare-fun of_rep ((_ BitVec 8)) byte)

;; "inversion_axiom"
(assert
  (forall ((x byte)) (! (= (of_rep (to_rep x)) x) :pattern ((to_rep x)) )))

;; "range_axiom"
(assert true)

;; "coerce_axiom"
(assert
  (forall ((x (_ BitVec 8)))
    (! (= (to_rep (of_rep x)) x) :pattern ((to_rep (of_rep x))) )))

(declare-const x0 (_ BitVec 32))

(declare-const x1 (_ BitVec 32))

(declare-const x2 (_ BitVec 32))

(declare-const x3 (_ BitVec 32))

(declare-const x4 (_ BitVec 32))

(declare-const x5 (_ BitVec 32))

(declare-const x6 (_ BitVec 32))

(declare-const x7 (_ BitVec 32))

(declare-const x8 (_ BitVec 32))

(declare-const x9 (_ BitVec 32))

(declare-const x10 (_ BitVec 32))

(declare-const x11 (_ BitVec 32))

(declare-const x12 (_ BitVec 32))

(declare-const x13 (_ BitVec 32))

(declare-const x14 (_ BitVec 32))

(declare-const x15 (_ BitVec 32))

(declare-const y map1)

;; "y'unused"
(define-fun yqtunused () map__ref
  (map__refqtmk y))

;; "x15'unused"
(define-fun x15qtunused () t__ref
  (t__refqtmk x15))

;; "x14'unused"
(define-fun x14qtunused () t__ref
  (t__refqtmk x14))

;; "x13'unused"
(define-fun x13qtunused () t__ref
  (t__refqtmk x13))

;; "x12'unused"
(define-fun x12qtunused () t__ref
  (t__refqtmk x12))

;; "x11'unused"
(define-fun x11qtunused () t__ref
  (t__refqtmk x11))

;; "x10'unused"
(define-fun x10qtunused () t__ref
  (t__refqtmk x10))

;; "x9'unused"
(define-fun x9qtunused () t__ref
  (t__refqtmk x9))

;; "x8'unused"
(define-fun x8qtunused () t__ref
  (t__refqtmk x8))

;; "x7'unused"
(define-fun x7qtunused () t__ref
  (t__refqtmk x7))

;; "x6'unused"
(define-fun x6qtunused () t__ref
  (t__refqtmk x6))

;; "x5'unused"
(define-fun x5qtunused () t__ref
  (t__refqtmk x5))

;; "x4'unused"
(define-fun x4qtunused () t__ref
  (t__refqtmk x4))

;; "x3'unused"
(define-fun x3qtunused () t__ref
  (t__refqtmk x3))

;; "x2'unused"
(define-fun x2qtunused () t__ref
  (t__refqtmk x2))

;; "x1'unused"
(define-fun x1qtunused () t__ref
  (t__refqtmk x1))

;; "x0'unused"
(define-fun x0qtunused () t__ref
  (t__refqtmk x0))

;; "Assume"
(assert true)

;; "Assume"
(assert true)

;; "Assume"
(assert true)

;; "Assume"
(assert true)

;; "Assume"
(assert true)

;; "Assume"
(assert true)

;; "Assume"
(assert true)

;; "Assume"
(assert true)

;; "Assume"
(assert true)

;; "Assume"
(assert true)

;; "Assume"
(assert true)

;; "Assume"
(assert true)

;; "Assume"
(assert true)

;; "Assume"
(assert true)

;; "Assume"
(assert true)

;; "Assume"
(assert true)

;; "Assume"
(assert (has_bounds y 0 63))

;; "map__content'result'unused"
(define-fun map__contentqtresultqtunused () map1
  y)

;; "H"
(assert (<= 0 3))

;; Goal "def'vc"
;; File "sparknacl-core.adb", line 417, characters 0-0
(assert
  (not (<= 3 63)))

(check-sat)
